NAME : berlin52-R-5-1-a.11651.tour
COMMENT : Length = 11651
COMMENT : Found by LKH-3 [Keld Helsgaun] Tue Jul 30 13:14:23 2024
TYPE : TOUR
DIMENSION : 52
TOUR_SECTION
1
34
36
39
40
15
6
4
27
11
33
43
8
45
3
22
23
50
29
30
7
2
42
31
18
41
19
35
44
37
38
48
12
28
26
47
13
14
52
51
25
5
24
46
16
20
21
17
9
10
32
49
-1
EOF
